NAME = SAfile180,
TOURSIZE = 180,
LENGTH = 1950,
62,137,24,44,118,89,168,14,60,85,82,72,146,143,100,65,112,81,48,94,26,101,126,127,179,166,106,19,17,68,20,122,134,13,80,121,156,97,10,34,3,39,75,167,90,136,18,2,160,165,115,120,7,178,47,51,30,109,95,92,172,116,158,135,52,43,139,152,29,16,12,45,171,64,66,36,37,23,70,77,128,155,41,83,170,164,54,28,73,33,125,58,180,176,103,96,114,111,110,105,69,67,131,76,53,31,141,27,154,129,102,88,25,133,144,108,157,56,86,87,161,59,148,9,5,140,71,119,99,49,117,151,32,4,50,38,63,11,1,91,98,142,57,113,40,147,15,61,162,79,93,8,21,42,138,46,132,6,22,175,173,174,130,84,35,107,149,150,123,153,159,78,74,163,145,104,177,169,55,124